10  5
 3  7  0  8  2 15  1  8  4 13   0 169   5
 0  4  3 10  2 15  1  8  4 14   0 169   5
 3 11  0 10  2 16  1 11  4 10   0 169  10
 1  7  0  5  2  8  3  8  4 14   0 169  10
 0 11  3 11  2 16  1  4  4 10   0 169   5
 1 11  0  7  2 11  3  6  4 16   0 169  10
 3  7  0  9  2 13  1  7  4 14   0 169   5
 3  9  0  3  2  9  1  7  4 16   0 169  10
 1 11  0  4  2 10  3  5  4 13   0 169  10
 0  5  3 10  2 15  1  6  4  9   0 169   5
